
-17.4
-17.2
-17.0
-16.8
-16.8
-16.7
-16.6
-16.5
-16.2
-16.0
-16.0
-16.0
-15.9
-15.8
-15.8
-15.8
-15.3
-15.3
-15.3
-15.3
-15.3
-15.3
-15.3
-15.3
-15.3
-15.3
-15.3
-15.3
-15.3
-15.3
-15.3
-15.3
-15.3
-15.3
-18.0
-17.8
-16.8
-16.7
-16.5
-16.5
-16.2
-16.0
-15.7
-15.5
-15.4
-15.4
-15.4
-15.4
-15.2
-15.1
-15.1
-15.1
-15.0
-14.9
-14.9
-14.9
-14.9
-14.9
-14.9
-14.9
-14.9
-14.9
-14.9
-14.9
-14.9
-14.9
-14.9
-14.9
-14.8
-17.1
-16.8
-16.6
-16.5
-16.4
-16.4
-16.3
-16.2
-15.8
-15.7
-15.7
-15.5
-15.5
-15.5
-15.2
-15.1
-15.1
-15.1
-15.1
-15.1
-15.1
-15.1
-15.1
-15.1
-15.1
-15.1
-15.1
-15.1